100 10
442 382
387 314
378 487
356 485
252 748
801 481
918 506
312 558
881 260
243 717
625 291
641 627
404 899
807 300
289 720
294 501
497 661
722 186
464 549
744 159
255 484
94 896
702 351
238 51
451 707
675 579
530 332
496 713
583 78
131 818
472 653
513 328
189 603
830 316
491 441
587 189
427 541
439 610
297 256
241 659
788 56
608 358
583 576
189 575
149 606
581 563
529 432
794 290
544 711
458 661
543 293
439 687
902 641
99 908
745 423
381 359
76 495
407 630
516 442
243 705
457 253
603 296
300 722
465 132
567 359
593 459
105 675
229 273
351 112
663 663
818 556
770 431
699 419
226 652
654 431
433 436
581 538
428 489
545 425
439 777
281 746
379 667
557 168
197 328
246 577
493 563
283 206
581 241
605 164
397 360
301 461
308 554
782 575
617 514
423 453
209 665
220 307
799 466
319 538
152 937
